\ SCIP STATISTICS
\   Problem name     : b-ball
\   Variables        : 100 (88 binary, 0 integer, 0 implicit integer, 12 continuous)
\   Constraints      : 30
Minimize
 Obj: -1 x12
Subject to
 c1: +1 x12 -1 x1 <= +0
 c2: +1 x12 -1 x2 <= +0
 c3: +1 x12 -1 x3 <= +0
 c4: +1 x12 -1 x4 <= +0
 c5: +1 x12 -1 x5 <= +0
 c6: +1 x12 -1 x6 <= +0
 c7: +1 x12 -1 x7 <= +0
 c8: +1 x12 -1 x8 <= +0
 c9: +1 x12 -1 x9 <= +0
 c10: +1 x12 -1 x10 <= +0
 c11: +1 x12 -1 x11 <= +0
 c12: +2 x1 -1 x13 -1 x14 -1 x15 -1 x16 -1 x17 -1 x18 -1 x19 -1 x20 = +0
 c13: +2 x2 -1 x21 -1 x22 -1 x23 -1 x24 -1 x25 -1 x26 -1 x27 -1 x28 = +0
 c14: +2 x3 -1 x29 -1 x30 -1 x31 -1 x32 -1 x33 -1 x34 -1 x35 -1 x36 = +0
 c15: +2 x4 -1 x37 -1 x38 -1 x39 -1 x40 -1 x41 -1 x42 -1 x43 -1 x44 = +0
 c16: +2 x5 -1 x45 -1 x46 -1 x47 -1 x48 -1 x49 -1 x50 -1 x51 -1 x52 = +0
 c17: +2 x6 -1 x53 -1 x54 -1 x55 -1 x56 -1 x57 -1 x58 -1 x59 -1 x60 = +0
 c18: +2 x7 -1 x61 -1 x62 -1 x63 -1 x64 -1 x65 -1 x66 -1 x67 -1 x68 = +0
 c19: +2 x8 -1 x69 -1 x70 -1 x71 -1 x72 -1 x73 -1 x74 -1 x75 -1 x76 = +0
 c20: +2 x9 -1 x77 -1 x78 -1 x79 -1 x80 -1 x81 -1 x82 -1 x83 -1 x84 = +0
 c21: +2 x10 -1 x85 -1 x86 -1 x87 -1 x88 -1 x89 -1 x90 -1 x91 -1 x92 = +0
 c22: +2 x11 -1 x93 -1 x94 -1 x95 -1 x96 -1 x97 -1 x98 -1 x99 -1 x100 = +0
 c23: +1 x13 +1 x21 +1 x29 +1 x37 +1 x45 +1 x53 +1 x61 +1 x69 +1 x77 +1 x85 +1 x93 = +5
 c24: +1 x14 +1 x22 +1 x30 +1 x38 +1 x46 +1 x54 +1 x62 +1 x70 +1 x78 +1 x86 +1 x94 = +5
 c25: +1 x15 +1 x23 +1 x31 +1 x39 +1 x47 +1 x55 +1 x63 +1 x71 +1 x79 +1 x87 +1 x95 = +5
 c26: +1 x16 +1 x24 +1 x32 +1 x40 +1 x48 +1 x56 +1 x64 +1 x72 +1 x80 +1 x88 +1 x96 = +5
 c27: +1 x17 +1 x25 +1 x33 +1 x41 +1 x49 +1 x57 +1 x65 +1 x73 +1 x81 +1 x89 +1 x97 = +5
 c28: +1 x18 +1 x26 +1 x34 +1 x42 +1 x50 +1 x58 +1 x66 +1 x74 +1 x82 +1 x90 +1 x98 = +5
 c29: +1 x19 +1 x27 +1 x35 +1 x43 +1 x51 +1 x59 +1 x67 +1 x75 +1 x83 +1 x91 +1 x99 = +5
 c30: +1 x20 +1 x28 +1 x36 +1 x44 +1 x52 +1 x60 +1 x68 +1 x76 +1 x84 +1 x92 +1 x100 = +5
Bounds
 0 <= x99 <= 1
 0 <= x13 <= 1
 0 <= x14 <= 1
 0 <= x15 <= 1
 0 <= x16 <= 1
 0 <= x17 <= 1
 0 <= x18 <= 1
 0 <= x19 <= 1
 0 <= x20 <= 1
 0 <= x21 <= 1
 0 <= x22 <= 1
 0 <= x23 <= 1
 0 <= x24 <= 1
 0 <= x25 <= 1
 0 <= x26 <= 1
 0 <= x27 <= 1
 0 <= x28 <= 1
 0 <= x29 <= 1
 0 <= x30 <= 1
 0 <= x31 <= 1
 0 <= x32 <= 1
 0 <= x33 <= 1
 0 <= x34 <= 1
 0 <= x35 <= 1
 0 <= x36 <= 1
 0 <= x37 <= 1
 0 <= x38 <= 1
 0 <= x39 <= 1
 0 <= x40 <= 1
 0 <= x41 <= 1
 0 <= x42 <= 1
 0 <= x43 <= 1
 0 <= x44 <= 1
 0 <= x45 <= 1
 0 <= x46 <= 1
 0 <= x47 <= 1
 0 <= x48 <= 1
 0 <= x49 <= 1
 0 <= x50 <= 1
 0 <= x51 <= 1
 0 <= x52 <= 1
 0 <= x53 <= 1
 0 <= x54 <= 1
 0 <= x55 <= 1
 0 <= x56 <= 1
 0 <= x57 <= 1
 0 <= x58 <= 1
 0 <= x59 <= 1
 0 <= x60 <= 1
 0 <= x61 <= 1
 0 <= x62 <= 1
 0 <= x63 <= 1
 0 <= x64 <= 1
 0 <= x65 <= 1
 0 <= x66 <= 1
 0 <= x67 <= 1
 0 <= x68 <= 1
 0 <= x69 <= 1
 0 <= x70 <= 1
 0 <= x71 <= 1
 0 <= x72 <= 1
 0 <= x73 <= 1
 0 <= x74 <= 1
 0 <= x75 <= 1
 0 <= x76 <= 1
 0 <= x77 <= 1
 0 <= x78 <= 1
 0 <= x79 <= 1
 0 <= x80 <= 1
 0 <= x81 <= 1
 0 <= x82 <= 1
 0 <= x83 <= 1
 0 <= x84 <= 1
 0 <= x85 <= 1
 0 <= x86 <= 1
 0 <= x87 <= 1
 0 <= x88 <= 1
 0 <= x89 <= 1
 0 <= x90 <= 1
 0 <= x91 <= 1
 0 <= x92 <= 1
 0 <= x93 <= 1
 0 <= x94 <= 1
 0 <= x95 <= 1
 0 <= x96 <= 1
 0 <= x97 <= 1
 0 <= x98 <= 1
 0 <= x100 <= 1
Binaries
 x99 x13 x14 x15 x16 x17 x18 x19 x20 x21 x22 x23 x24 x25 x26 x27 x28 x29 x30 x31 x32 x33 x34 x35 x36 x37
 x38 x39 x40 x41 x42 x43 x44 x45 x46 x47 x48 x49 x50 x51 x52 x53 x54 x55 x56 x57 x58 x59 x60 x61 x62 x63
 x64 x65 x66 x67 x68 x69 x70 x71 x72 x73 x74 x75 x76 x77 x78 x79 x80 x81 x82 x83 x84 x85 x86 x87 x88 x89
 x90 x91 x92 x93 x94 x95 x96 x97 x98 x100
End
